c generated by 'genhorn -k 3 -s 1 10 15'
p cnf 10 15
-7 -8 -6 0
-6 7 -3 0
-2 3 -8 0
-10 -4 7 0
7 -3 -2 0
8 -10 -3 0
-3 -4 8 0
-10 -3 -9 0
-8 4 -7 0
-3 -10 -4 0
-10 5 -8 0
-5 -6 1 0
-7 2 -1 0
4 -3 -1 0
2 -6 -5 0
